p edge 50 129
e 0 11
e 0 12
e 0 15
e 0 18
e 0 22
e 0 26
e 0 27
e 0 29
e 0 35
e 0 41
e 0 48
e 1 5
e 1 26
e 1 44
e 1 46
e 2 11
e 2 15
e 2 22
e 2 25
e 2 28
e 2 32
e 2 33
e 2 48
e 3 20
e 3 24
e 4 32
e 4 44
e 5 31
e 5 33
e 6 17
e 6 37
e 7 27
e 7 45
e 7 48
e 8 10
e 8 26
e 8 29
e 8 43
e 8 44
e 9 45
e 10 18
e 10 23
e 10 25
e 10 30
e 10 40
e 10 41
e 11 19
e 11 27
e 11 37
e 12 30
e 12 40
e 12 44
e 12 46
e 12 47
e 13 27
e 13 28
e 13 49
e 14 27
e 14 29
e 14 32
e 14 35
e 14 38
e 14 40
e 14 44
e 14 47
e 15 41
e 15 49
e 16 20
e 16 31
e 16 38
e 17 21
e 17 30
e 17 37
e 17 41
e 17 43
e 17 44
e 17 48
e 17 49
e 18 24
e 18 37
e 18 42
e 19 37
e 20 21
e 20 27
e 20 34
e 20 43
e 20 44
e 20 45
e 20 46
e 21 24
e 21 27
e 21 31
e 21 34
e 21 35
e 21 47
e 22 29
e 22 44
e 22 46
e 23 36
e 23 37
e 24 36
e 25 42
e 25 49
e 26 35
e 26 45
e 26 49
e 27 30
e 27 35
e 27 41
e 28 31
e 28 44
e 29 35
e 29 42
e 29 43
e 30 35
e 30 39
e 32 36
e 33 43
e 34 39
e 34 49
e 36 39
e 36 47
e 38 48
e 39 43
e 39 45
e 40 41
e 40 43
e 41 42
e 42 45
